words_hard_train/1410.qaiger
aag 47 19 0 1 28
2
4
8
10
16
18
22
30
40
42
46
48
54
56
62
64
68
74
76
95
6 2 4
12 8 10
14 6 12
20 16 18
24 20 23
26 15 25
28 7 13
32 29 31
34 26 33
36 21 22
38 35 37
44 40 42
50 46 48
52 44 50
58 54 56
60 52 58
66 62 64
70 66 68
72 60 70
78 74 76
80 73 78
82 38 81
84 59 45
86 67 69
88 84 86
90 88 51
92 91 79
94 83 93
i0 1 x2[0]
i1 2 y2[0]
i2 1 x2[1]
i3 2 y2[1]
i4 1 x2[2]
i5 2 y2[2]
i6 2 y1[6]
i7 2 y1[5]
i8 1 x2[3]
i9 2 y2[3]
i10 1 x2[4]
i11 2 y2[4]
i12 1 x2[6]
i13 2 y2[6]
i14 1 x2[5]
i15 2 y2[5]
i16 2 y1[7]
i17 1 x2[7]
i18 2 y2[7]
o0 bv[0]
c
simplified
  >=
    and
      2 y2
      1 x2
    or
      1
      >> 4
        2 y1
