words_hard_train/1410.qaiger.qdimacs
p cnf 47 85
a 1 4 37 8 20 23 27 31 0
e 2 3 5 6 7 9 10 11 12 13 14 15 16 17 18 19 21 22 24 25 26 28 29 30 32 33 34 35 36 38 39 40 41 42 43 44 45 46 47 0
-1 -2 3 0
1 -3 0
2 -3 0
-4 -5 6 0
4 -6 0
5 -6 0
-3 -6 7 0
3 -7 0
6 -7 0
-8 -9 10 0
8 -10 0
9 -10 0
-10 11 12 0
10 -12 0
-11 -12 0
7 12 13 0
-7 -13 0
-12 -13 0
3 6 14 0
-3 -14 0
-6 -14 0
14 15 16 0
-14 -16 0
-15 -16 0
-13 16 17 0
13 -17 0
-16 -17 0
10 -11 18 0
-10 -18 0
11 -18 0
17 18 19 0
-17 -19 0
-18 -19 0
-20 -21 22 0
20 -22 0
21 -22 0
-23 -24 25 0
23 -25 0
24 -25 0
-22 -25 26 0
22 -26 0
25 -26 0
-27 -28 29 0
27 -29 0
28 -29 0
-26 -29 30 0
26 -30 0
29 -30 0
-31 -32 33 0
31 -33 0
32 -33 0
-33 -34 35 0
33 -35 0
34 -35 0
-30 -35 36 0
30 -36 0
35 -36 0
-37 -38 39 0
37 -39 0
38 -39 0
36 -39 40 0
-36 -40 0
39 -40 0
-19 40 41 0
19 -41 0
-40 -41 0
29 22 42 0
-29 -42 0
-22 -42 0
33 34 43 0
-33 -43 0
-34 -43 0
-42 -43 44 0
42 -44 0
43 -44 0
-44 25 45 0
44 -45 0
-25 -45 0
45 39 46 0
-45 -46 0
-39 -46 0
41 46 47 0
-41 -47 0
-46 -47 0
-47 0
